# Example using Lennard-Jones potential

units		lj
atom_style	atomic

newton off

lattice		fcc 0.8442
region		box block 0 10 0 10 0 10
create_box	2 box

mass		1 2.0
mass		2 8.0

create_atoms	1 box
create_atoms	2 box

velocity	all create 1.4 87287 loop geom

pair_style	lj/cut 2.5
pair_coeff	1 1 1.0 1.0 2.5

neighbor	0.3 bin
neigh_modify	every 20 one 50
comm_modify	cutoff * 20
fix		1 all nve
thermo 10

dump dmpvtk all vtk 10 dump%_*.vtu

run		100
