# 3d NaCl melt

units		metal
atom_style	charge

newton off
lattice		fcc 4.0
region		box block 0 40 0 40 0 40
create_box	1 box
create_atoms	1 box

mass		1 1.0
mass            2 1.0
set             type 1 charge 1
set             type 2 charge -1

velocity	all create 1000 87287 loop geom

kspace_style    ewald 1.0e-4
pair_style	lj/cut/coul/long 2.5 5.0
pair_coeff	1 1 1.0 1.0 2.5

neighbor	0.3 bin
neigh_modify delay 0 every 20 check no
fix		1 all nve
thermo 10

run		100
