# Example using neural network potential for Ni
# Potential computation modified from n2p2: https://github.com/CompPhysVienna/n2p2
# Potential terms unmodified from: https://github.com/materialsvirtuallab/mlearn/tree/master/mvl_models

units          metal 
atom_style     atomic 

lattice        fcc 3.52
region         box block 0 3 0 3 0 3 
create_box     1 box 
create_atoms   1 box
mass           1 58.6934 

pair_style     nnp dir input/nnp showew no showewsum 10 resetew no maxew 100 cflength 1.8897261328 cfenergy 0.0367493254
pair_coeff     * * 3.9 

timestep 0.0005
thermo 10

velocity all create 600 87287 loop geom

fix INT all nve

run 100
